p wcnf 169 200 201 
1 -63 97 0 
1 -9 -37 0 
1 106 24 0 
1 35 112 0 
1 -91 40 0 
1 82 29 0 
1 -161 158 0 
1 110 19 0 
1 95 88 0 
1 7 159 0 
1 -139 -129 0 
1 -33 -76 0 
1 -80 127 0 
1 -63 157 0 
1 -144 -134 0 
1 -165 -72 0 
1 47 14 0 
1 -89 -60 0 
1 112 163 0 
1 -168 118 0 
1 -80 -70 0 
1 -36 -71 0 
1 13 -137 0 
1 -79 121 0 
1 -142 -110 0 
1 -47 84 0 
1 103 -90 0 
1 119 92 0 
1 146 -77 0 
1 -145 -110 0 
1 -8 -151 0 
1 -22 143 0 
1 -129 -120 0 
1 20 72 0 
1 -150 -24 0 
1 -131 154 0 
1 169 -4 0 
1 -106 116 0 
1 9 164 0 
1 -130 9 0 
1 144 151 0 
1 -78 31 0 
1 112 78 0 
1 155 57 0 
1 146 167 0 
1 85 27 0 
1 86 -39 0 
1 -55 137 0 
1 -28 -159 0 
1 -145 165 0 
1 -165 -90 0 
1 -63 123 0 
1 -119 146 0 
1 124 139 0 
1 9 -67 0 
1 135 -151 0 
1 -27 -23 0 
1 98 -119 0 
1 59 158 0 
1 -129 -45 0 
1 49 83 0 
1 -35 -160 0 
1 137 -12 0 
1 155 -96 0 
1 -153 -79 0 
1 65 -124 0 
1 -39 32 0 
1 111 51 0 
1 -37 -54 0 
1 -2 142 0 
1 -134 -145 0 
1 -137 -157 0 
1 98 53 0 
1 109 -8 0 
1 14 138 0 
1 -29 46 0 
1 14 137 0 
1 71 -160 0 
1 41 -106 0 
1 137 20 0 
1 -63 -151 0 
1 -72 -21 0 
1 -30 -34 0 
1 8 -155 0 
1 157 -76 0 
1 -155 128 0 
1 63 -88 0 
1 -34 32 0 
1 165 35 0 
1 -67 79 0 
1 2 -36 0 
1 -165 -72 0 
1 42 -150 0 
1 -51 -9 0 
1 -64 116 0 
1 145 138 0 
1 38 141 0 
1 150 -9 0 
1 56 -151 0 
1 -161 28 0 
1 3 -47 0 
1 -83 3 0 
1 -82 9 0 
1 21 61 0 
1 -136 112 0 
1 63 75 0 
1 -25 -46 0 
1 28 -55 0 
1 84 97 0 
1 -32 100 0 
1 -22 -2 0 
1 -19 121 0 
1 57 12 0 
1 -26 -19 0 
1 71 125 0 
1 109 -149 0 
1 -127 128 0 
1 37 25 0 
1 95 89 0 
1 47 13 0 
1 1 -37 0 
1 141 83 0 
1 27 -59 0 
1 150 -71 0 
1 -17 -104 0 
1 -143 -107 0 
1 -96 147 0 
1 16 -56 0 
1 -26 -73 0 
1 -150 -9 0 
1 -48 -150 0 
1 52 -28 0 
1 85 38 0 
1 160 121 0 
1 -93 -106 0 
1 -88 -138 0 
1 -84 159 0 
1 -137 -98 0 
1 -63 -131 0 
1 154 -103 0 
1 36 -73 0 
1 3 151 0 
1 40 -72 0 
1 -157 -6 0 
1 32 166 0 
1 -74 106 0 
1 -82 -1 0 
1 169 -66 0 
1 -44 -58 0 
1 19 47 0 
1 -76 -39 0 
1 -101 -36 0 
1 -27 88 0 
1 -128 58 0 
1 -46 -59 0 
1 4 -8 0 
1 -105 -47 0 
1 -134 -21 0 
1 -36 -76 0 
1 14 -111 0 
1 34 24 0 
1 -45 49 0 
1 -111 62 0 
1 -80 168 0 
1 7 -136 0 
1 -72 167 0 
1 -11 120 0 
1 -21 -156 0 
1 -39 -113 0 
1 126 149 0 
1 14 -114 0 
1 -145 21 0 
1 98 -159 0 
1 -25 -132 0 
1 36 51 0 
1 -144 -95 0 
1 151 64 0 
1 17 29 0 
1 -88 89 0 
1 90 -40 0 
1 -113 34 0 
1 28 120 0 
1 108 -98 0 
1 168 50 0 
1 -153 26 0 
1 67 -136 0 
1 -83 117 0 
1 13 148 0 
1 24 51 0 
1 -23 -67 0 
1 -91 75 0 
1 32 -87 0 
1 -67 107 0 
1 36 -101 0 
1 -69 -139 0 
1 116 -73 0 
1 6 111 0 
1 20 124 0 
1 -29 36 0 
1 129 -53 0 
